(declare-fun temp270_1 () (_ BitVec 64))
(declare-fun var89147 () (_ BitVec 64))
(declare-fun k!0 () Bool)
(declare-fun ARGNAME_source_NAMEEND_LEN () (_ BitVec 64))
(declare-fun ARGNAME_destination_NAMEEND_LEN () (_ BitVec 64))
(declare-fun temp270_3 () (_ BitVec 64))
(declare-fun temp270_2 () (_ BitVec 64))
(declare-fun temp270_4 () (_ BitVec 64))
(declare-fun var201290 () (_ BitVec 64))
(declare-fun var201292 () (_ BitVec 64))
(declare-fun temp270_5 () (_ BitVec 64))
(declare-fun var461075 () (_ BitVec 64))
(declare-fun temp270_7 () (_ BitVec 64))
(declare-fun temp270_6 () (_ BitVec 64))
(declare-fun temp270_8 () (_ BitVec 64))
(declare-fun var856650 () (_ BitVec 64))
(declare-fun var856652 () (_ BitVec 64))
(declare-fun temp270_9 () (_ BitVec 64))
(declare-fun var1116435 () (_ BitVec 64))
(declare-fun temp270_11 () (_ BitVec 64))
(declare-fun temp270_10 () (_ BitVec 64))
(declare-fun var1577925 () (_ BitVec 64))
(declare-fun temp270_12 () (_ BitVec 64))
(declare-fun temp270_13 () (_ BitVec 64))
(declare-fun var1643466 () (_ BitVec 64))
(declare-fun temp270_15 () (_ BitVec 64))
(declare-fun temp270_14 () (_ BitVec 64))
(declare-fun var2298821 () (_ BitVec 64))
(declare-fun temp270_16 () (_ BitVec 64))
(declare-fun temp270_17 () (_ BitVec 64))
(declare-fun var2364362 () (_ BitVec 64))
(declare-fun temp270_18 () (_ BitVec 64))
(declare-fun var3019338 () (_ BitVec 64))
(declare-fun var3019340 () (_ BitVec 64))
(declare-fun temp270_19 () (_ BitVec 64))
(declare-fun var4461130 () (_ BitVec 64))
(declare-fun var4461132 () (_ BitVec 64))
(declare-fun temp270_20 () (_ BitVec 64))
(declare-fun ARGNAME_input_NAMEEND_DIM () (_ BitVec 64))
(declare-fun var89269 () (_ BitVec 64))
(declare-fun temp270_21 () (_ BitVec 64))
(declare-fun temp270_23 () (_ BitVec 64))
(declare-fun temp270_22 () (_ BitVec 64))
(declare-fun temp270_24 () (_ BitVec 64))
(declare-fun var5837386 () (_ BitVec 64))
(declare-fun var5837388 () (_ BitVec 64))
(declare-fun temp270_26 () (_ BitVec 64))
(declare-fun temp270_25 () (_ BitVec 64))
(declare-fun temp270_27 () (_ BitVec 64))
(declare-fun var7017034 () (_ BitVec 64))
(declare-fun var7017036 () (_ BitVec 64))
(declare-fun temp270_29 () (_ BitVec 64))
(declare-fun temp270_28 () (_ BitVec 64))
(declare-fun temp270_30 () (_ BitVec 64))
(declare-fun var7934538 () (_ BitVec 64))
(declare-fun var7934540 () (_ BitVec 64))
(assert (= var89147
   (ite (= ARGNAME_source_NAMEEND_LEN ARGNAME_destination_NAMEEND_LEN)
        #x0000000000000001
        #x0000000000000000)))
(assert (= temp270_1 #x0000000000000001))
(assert (= var89147 temp270_1))
(assert (= temp270_3 #x0000000000000000))
(assert (= temp270_2 temp270_3))
(assert (= temp270_4 #x0000000000000005))
(assert (= var201290 temp270_4))
(assert (= var201292 var201290))
(assert (= temp270_5 #x0000000000000000))
(assert (= var461075 temp270_5))
(assert (= temp270_7 #x0000000000000000))
(assert (= temp270_6 temp270_7))
(assert (= temp270_8 #x0000000000000005))
(assert (= var856650 temp270_8))
(assert (= var856652 var856650))
(assert (= temp270_9 #x0000000000000000))
(assert (= var1116435 temp270_9))
(assert (= temp270_11 #x0000000000000000))
(assert (= temp270_10 temp270_11))
(assert (= var1577925
   (ite (bvslt temp270_10 ARGNAME_source_NAMEEND_LEN)
        #x0000000000000001
        #x0000000000000000)))
(assert (= temp270_12
   (ite (= var1577925 #x0000000000000001) ARGNAME_source_NAMEEND_LEN temp270_10)))
(assert (= temp270_13 #x0000000000000000))
(assert (= var1643466 temp270_13))
(assert (= temp270_15 #x0000000000000000))
(assert (= temp270_14 temp270_15))
(assert (= var2298821
   (ite (bvslt temp270_14 ARGNAME_destination_NAMEEND_LEN)
        #x0000000000000001
        #x0000000000000000)))
(assert (= temp270_16
   (ite (= var2298821 #x0000000000000001)
        ARGNAME_destination_NAMEEND_LEN
        temp270_14)))
(assert (= temp270_17 #x0000000000000000))
(assert (= var2364362 temp270_17))
(assert (= temp270_18 #x0000000000000005))
(assert (= var3019338 temp270_18))
(assert (= var3019340 var3019338))
(assert (= temp270_19 #x0000000000000005))
(assert (= var4461130 temp270_19))
(assert (= var4461132 var4461130))
(assert (= temp270_20 #x0000000000000000))
(assert (= var89269
   (ite (= ARGNAME_input_NAMEEND_DIM temp270_20)
        #x0000000000000001
        #x0000000000000000)))
(assert (= temp270_21 #x0000000000000000))
(assert (= var89269 temp270_21))
(assert (= temp270_23 #x0000000000000000))
(assert (= temp270_22 temp270_23))
(assert (= temp270_24 #x0000000000000005))
(assert (= var5837386 temp270_24))
(assert (= var5837388 var5837386))
(assert (= temp270_26 #x0000000000000000))
(assert (= temp270_25 temp270_26))
(assert (= temp270_27 #x0000000000000005))
(assert (= var7017034 temp270_27))
(assert (= var7017036 var7017034))
(assert (= temp270_29 #x0000000000000000))
(assert (= temp270_28 temp270_29))
(assert (= temp270_30 #x0000000000000005))
(assert (= var7934538 temp270_30))
(assert (= var7934540 var7934538))
(model-add temp270_1 () (_ BitVec 64) #x0000000000000001)
(model-add var89147 () (_ BitVec 64) #x0000000000000001)
(model-del k!0)
(model-add ARGNAME_source_NAMEEND_LEN
           ()
           (_ BitVec 64)
           (ite k!0
                ARGNAME_destination_NAMEEND_LEN
                (bvnot ARGNAME_destination_NAMEEND_LEN)))





